0 0 0 0 0
1 16 100 8 0
2 2 20 15 38
3 116 133 14 48
4 117 170 8 30
5 155 46 17 47
6 30 96 13 29
7 99 6 15 15
8 161 33 10 54
9 165 107 11 50
10 103 101 13 18
11 131 173 14 36
12 136 135 9 43
13 43 193 16 33
14 115 77 12 3
15 42 146 18 4
16 108 21 13 44
17 141 26 11 4
18 165 48 8 38
19 110 24 16 38
20 101 153 14 11
21 156 81 12 6
22 6 189 17 28
23 148 189 10 4
24 122 48 18 39
25 89 137 18 50
